# 82977
param k := 5;
param n := 60;
param s := 2;
set E :=  (0,8) (0,39) (1,59) (2,7) (2,32) (2,50) (3,31) (4,6) (4,31) (5,23) (5,28) (6,12) (6,50) (7,13) (7,18) (7,47) (8,49) (9,29) (9,52) (10,49) (11,47) (12,16) (12,39) (13,41) (14,17) (14,27) (14,42) (15,44) (16,20) (16,34) (17,37) (17,45) (18,29) (18,46) (19,21) (19,50) (20,21) (20,45) (20,52) (22,32) (22,33) (22,38) (22,45) (23,27) (24,57) (24,59) (25,50) (26,35) (26,54) (26,58) (28,36) (29,57) (30,36) (30,57) (31,50) (32,42) (35,48) (35,56) (36,43) (39,45) (39,46) (40,44) (40,55) (41,44) (41,46) (41,49) (41,58) (43,45) (43,47) (45,49) (51,58) (53,58);